NAME: line_52_78
TYPE: TSP
COMMENT: srandom_52_78
DIMENSION: 52
EDGE_WEIGHT_TYPE: EUC_2D
NODE_COORD_SECTION
1 3851 3238
2 2303 1310
3 4138 1261
4 1980 4698
5 1174 439
6 794 1345
7 907 1098
8 318 3099
9 3843 914
10 297 1062
11 1858 1812
12 2065 1361
13 4754 3353
14 1721 159
15 4435 2010
16 960 516
17 412 2369
18 2309 3084
19 857 1247
20 678 1226
21 2729 4165
22 2854 3262
23 4103 389
24 1293 1116
25 2332 2169
26 1272 4363
27 1148 2124
28 3141 4990
29 882 402
30 4628 1717
31 1233 2058
32 2810 2010
33 210 860
34 3393 1779
35 1397 3733
36 3641 4431
37 2122 1444
38 3969 3910
39 2781 583
40 128 2046
41 3620 866
42 2274 1669
43 3668 4322
44 2933 2621
45 1747 3739
46 2625 4563
47 590 3255
48 296 2250
49 2330 4855
50 375 901
51 180 1760
52 1940 1148
